20 90
0 1 117.6
0 2 91.3
0 3 15.6
0 4 101.6
0 5 72.2
0 6 66.4
0 7 62.9
0 8 68.6
0 9 65.1
0 10 37.5
0 11 28.8
0 12 80.2
0 13 37.6
0 14 40.2
0 15 7.2
0 16 82.4
0 17 49.4
0 18 73.3
0 19 57.7
1 2 35.4
1 3 105.4
1 4 33.9
1 5 74.8
1 6 62.7
1 7 61.9
1 8 50.5
1 9 71.0
1 10 84.4
1 11 90.9
1 12 74.2
1 13 80.3
1 14 103.7
1 15 110.8
1 16 56.5
1 17 98.7
1 18 51.8
1 19 89.5
2 3 77.2
2 4 11.1
2 5 72.2
2 6 55.1
2 7 51.0
2 8 36.4
2 9 64.3
2 10 65.0
2 11 68.7
2 12 39.3
2 13 57.0
2 14 70.4
2 15 84.2
2 16 21.3
2 17 64.4
2 18 45.7
2 19 54.7
3 4 87.1
3 5 69.3
3 6 60.0
3 7 55.4
3 8 58.2
3 9 60.7
3 10 32.3
3 11 23.5
3 12 64.6
3 13 27.8
3 14 26.8
3 15 9.0
3 16 67.2
3 17 35.2
3 18 65.0
3 19 42.6
4 5 82.3
4 6 65.5
4 7 61.7
4 8 47.1
4 9 74.8
4 10 76.1
4 11 79.6
4 12 41.6
4 13 67.9
4 14 78.2
4 15 94.4
4 16 25.1
4 17 71.2
4 18 55.8
4 19 60.8
5 6 17.8
5 7 23.4
5 8 36.7
5 9 10.1
5 10 37.1
5 11 45.8
5 12 94.2
5 13 45.1
5 14 87.3
5 15 68.4
5 16 81.9
5 17 89.9
5 18 26.5
5 19 88.6
6 7 6.0
6 8 19.0
6 9 9.2
6 10 28.9
6 11 37.8
6 12 76.6
6 13 32.9
6 14 73.9
6 15 61.2
6 16 64.1
6 17 75.1
6 18 11.0
6 19 72.7
7 8 14.6
7 9 13.9
7 10 25.6
7 11 34.1
7 12 70.8
7 13 27.9
7 14 68.2
7 15 57.3
7 16 58.7
7 17 69.2
7 18 10.9
7 19 66.6
8 9 28.1
8 10 34.0
8 11 40.7
8 12 59.2
8 13 31.1
8 14 65.1
8 15 62.2
8 16 45.5
8 17 64.0
8 18 12.2
8 19 59.3
9 10 28.5
9 11 37.5
9 12 84.4
9 13 35.5
9 14 77.6
9 15 60.6
9 16 72.6
9 17 79.9
9 18 19.8
9 19 78.5
10 11 9.0
10 12 70.6
10 13 11.6
10 14 51.7
10 15 32.4
10 16 64.4
10 17 56.0
10 18 36.3
10 19 57.6
11 12 69.1
11 13 11.7
11 14 44.9
11 15 23.5
11 16 65.3
11 17 50.2
11 18 44.6
11 19 53.3
12 13 59.2
12 14 45.3
12 15 73.5
12 16 18.0
12 17 36.1
12 18 71.4
12 19 24.9
13 14 42.2
13 15 31.1
13 16 54.0
13 17 45.4
13 18 37.2
13 19 46.2
14 15 35.2
14 16 54.2
14 17 9.8
14 18 75.2
14 19 20.5
15 16 75.4
15 17 44.0
15 18 67.6
15 19 51.6
16 17 46.6
16 18 57.2
16 19 35.9
17 18 75.0
17 19 11.3
18 19 71.0
